Optimal - objective value 24576.00000000
      0 F                  24576                       1
      2 m_2_1                  1                       0
      4 m_3_1                  1                       0
      5 m_1_4                  1                       0
      7 m_1_5                  1                       0
     10 m_6_1                  1                       0
     12 m_7_1                  1                       0
     13 m_1_8                  1                       0
     15 m_1_9                  1                       0
     17 m_1_10                 1                       0
     20 m_11_1                 1                       0
     21 m_1_12                 1                       0
     23 m_1_13                 1                       0
     26 m_14_1                 1                       0
     28 m_15_1                 1                       0
     29 m_1_16                 1                       0
     31 m_1_17                 1                       0
     34 m_18_1                 1                       0
     35 m_1_19                 1                       0
     38 m_20_1                 1                       0
     39 m_2_3                  1                       0
     41 m_2_4                  1                       0
     43 m_2_5                  1                       0
     45 m_2_6                  1                       0
     47 m_2_7                  1                       0
     49 m_2_8                  1                       0
     51 m_2_9                  1                       0
     53 m_2_10                 1                       0
     55 m_2_11                 1                       0
     57 m_2_12                 1                       0
     59 m_2_13                 1                       0
     61 m_2_14                 1                       0
     63 m_2_15                 1                       0
     65 m_2_16                 1                       0
     67 m_2_17                 1                       0
     69 m_2_18                 1                       0
     71 m_2_19                 1                       0
     73 m_2_20                 1                       0
     75 m_3_4                  1                       0
     77 m_3_5                  1                       0
     79 m_3_6                  1                       0
     81 m_3_7                  1                       0
     83 m_3_8                  1                       0
     85 m_3_9                  1                       0
     87 m_3_10                 1                       0
     89 m_3_11                 1                       0
     91 m_3_12                 1                       0
     93 m_3_13                 1                       0
     95 m_3_14                 1                       0
     97 m_3_15                 1                       0
     99 m_3_16                 1                       0
    101 m_3_17                 1                       0
    103 m_3_18                 1                       0
    105 m_3_19                 1                       0
    107 m_3_20                 1                       0
    109 m_4_5                  1                       0
    112 m_6_4                  1                       0
    114 m_7_4                  1                       0
    115 m_4_8                  1                       0
    117 m_4_9                  1                       0
    120 m_10_4                 1                       0
    122 m_11_4                 1                       0
    123 m_4_12                 1                       0
    125 m_4_13                 1                       0
    128 m_14_4                 1                       0
    130 m_15_4                 1                       0
    131 m_4_16                 1                       0
    134 m_17_4                 1                       0
    136 m_18_4                 1                       0
    137 m_4_19                 1                       0
    140 m_20_4                 1                       0
    142 m_6_5                  1                       0
    144 m_7_5                  1                       0
    145 m_5_8                  1                       0
    147 m_5_9                  1                       0
    150 m_10_5                 1                       0
    152 m_11_5                 1                       0
    154 m_12_5                 1                       0
    155 m_5_13                 1                       0
    158 m_14_5                 1                       0
    160 m_15_5                 1                       0
    162 m_16_5                 1                       0
    164 m_17_5                 1                       0
    166 m_18_5                 1                       0
    167 m_5_19                 1                       0
    170 m_20_5                 1                       0
    171 m_6_7                  1                       0
    173 m_6_8                  1                       0
    175 m_6_9                  1                       0
    177 m_6_10                 1                       0
    179 m_6_11                 1                       0
    181 m_6_12                 1                       0
    183 m_6_13                 1                       0
    185 m_6_14                 1                       0
    187 m_6_15                 1                       0
    189 m_6_16                 1                       0
    191 m_6_17                 1                       0
    193 m_6_18                 1                       0
    195 m_6_19                 1                       0
    197 m_6_20                 1                       0
    199 m_7_8                  1                       0
    201 m_7_9                  1                       0
    203 m_7_10                 1                       0
    205 m_7_11                 1                       0
    207 m_7_12                 1                       0
    209 m_7_13                 1                       0
    211 m_7_14                 1                       0
    213 m_7_15                 1                       0
    215 m_7_16                 1                       0
    217 m_7_17                 1                       0
    219 m_7_18                 1                       0
    221 m_7_19                 1                       0
    223 m_7_20                 1                       0
    226 m_9_8                  1                       0
    228 m_10_8                 1                       0
    230 m_11_8                 1                       0
    232 m_12_8                 1                       0
    233 m_8_13                 1                       0
    236 m_14_8                 1                       0
    238 m_15_8                 1                       0
    240 m_16_8                 1                       0
    242 m_17_8                 1                       0
    244 m_18_8                 1                       0
    246 m_19_8                 1                       0
    248 m_20_8                 1                       0
    250 m_10_9                 1                       0
    252 m_11_9                 1                       0
    254 m_12_9                 1                       0
    255 m_9_13                 1                       0
    258 m_14_9                 1                       0
    260 m_15_9                 1                       0
    262 m_16_9                 1                       0
    264 m_17_9                 1                       0
    266 m_18_9                 1                       0
    268 m_19_9                 1                       0
    270 m_20_9                 1                       0
    272 m_11_10                1                       0
    273 m_10_12                1                       0
    275 m_10_13                1                       0
    278 m_14_10                1                       0
    280 m_15_10                1                       0
    281 m_10_16                1                       0
    284 m_17_10                1                       0
    286 m_18_10                1                       0
    287 m_10_19                1                       0
    290 m_20_10                1                       0
    291 m_11_12                1                       0
    293 m_11_13                1                       0
    295 m_11_14                1                       0
    297 m_11_15                1                       0
    299 m_11_16                1                       0
    301 m_11_17                1                       0
    303 m_11_18                1                       0
    305 m_11_19                1                       0
    307 m_11_20                1                       0
    309 m_12_13                1                       0
    312 m_14_12                1                       0
    314 m_15_12                1                       0
    316 m_16_12                1                       0
    318 m_17_12                1                       0
    320 m_18_12                1                       0
    321 m_12_19                1                       0
    324 m_20_12                1                       0
    326 m_14_13                1                       0
    328 m_15_13                1                       0
    330 m_16_13                1                       0
    332 m_17_13                1                       0
    334 m_18_13                1                       0
    336 m_19_13                1                       0
    338 m_20_13                1                       0
    339 m_14_15                1                       0
    341 m_14_16                1                       0
    343 m_14_17                1                       0
    345 m_14_18                1                       0
    347 m_14_19                1                       0
    350 m_20_14                1                       0
    351 m_15_16                1                       0
    353 m_15_17                1                       0
    355 m_15_18                1                       0
    357 m_15_19                1                       0
    360 m_20_15                1                       0
    362 m_17_16                1                       0
    364 m_18_16                1                       0
    365 m_16_19                1                       0
    368 m_20_16                1                       0
    370 m_18_17                1                       0
    371 m_17_19                1                       0
    374 m_20_17                1                       0
    375 m_18_19                1                       0
    378 m_20_18                1                       0
    380 m_20_19                1                       0
    381 s_1                   10                       0
    382 m_1_1                  1                       0
    383 s_2                    1                       0
    384 m_2_2                  1                       0
    385 s_3                    2                       0
    386 m_3_3                  1                       0
    387 s_4                   13                       0
    388 m_4_4                  1                       0
    389 s_5                   16                       0
    390 m_5_5                  1                       0
    391 s_6                    3                       0
    392 m_6_6                  1                       0
    393 s_7                    4                       0
    394 m_7_7                  1                       0
    395 s_8                   19                       0
    396 m_8_8                  1                       0
    397 s_9                   18                       0
    398 m_9_9                  1                       0
    399 s_10                  12                       0
    400 m_10_10                1                       0
    401 s_11                   5                       0
    402 m_11_11                1                       0
    403 s_12                  15                       0
    404 m_12_12                1                       0
    405 s_13                  20                       0
    406 m_13_13                1                       0
    407 s_14                   7                       0
    408 m_14_14                1                       0
    409 s_15                   8                       0
    410 m_15_15                1                       0
    411 s_16                  14                       0
    412 m_16_16                1                       0
    413 s_17                  11                       0
    414 m_17_17                1                       0
    415 s_18                   9                       0
    416 m_18_18                1                       0
    417 s_19                  17                       0
    418 m_19_19                1                       0
    419 s_20                   6                       0
    420 m_20_20                1                       0
    421 y_1_1                  1                       0
    422 y_2_1                  1                       0
    423 y_3_1                  1                       0
    426 y_6_1                  1                       0
    442 y_2_2                  1                       0
    462 y_2_3                  1                       0
    463 y_3_3                  1                       0
    481 y_1_4                  1                       0
    482 y_2_4                  1                       0
    483 y_3_4                  1                       0
    484 y_4_4                  1                       0
    490 y_10_4                 1                       0
    501 y_1_5                  1                       0
    503 y_3_5                  1                       0
    505 y_5_5                  1                       0
    512 y_12_5                 1                       0
    522 y_2_6                  1                       0
    523 y_3_6                  1                       0
    526 y_6_6                  1                       0
    542 y_2_7                  1                       0
    543 y_3_7                  1                       0
    546 y_6_7                  1                       0
    547 y_7_7                  1                       0
    561 y_1_8                  1                       0
    568 y_8_8                  1                       0
    569 y_9_8                  1                       0
    581 y_1_9                  1                       0
    585 y_5_9                  1                       0
    589 y_9_9                  1                       0
    601 y_1_10                 1                       0
    602 y_2_10                 1                       0
    603 y_3_10                 1                       0
    610 y_10_10                1                       0
    622 y_2_11                 1                       0
    623 y_3_11                 1                       0
    626 y_6_11                 1                       0
    631 y_11_11                1                       0
    641 y_1_12                 1                       0
    642 y_2_12                 1                       0
    643 y_3_12                 1                       0
    644 y_4_12                 1                       0
    652 y_12_12                1                       0
    668 y_8_13                 1                       0
    669 y_9_13                 1                       0
    673 y_13_13                1                       0
    682 y_2_14                 1                       0
    683 y_3_14                 1                       0
    686 y_6_14                 1                       0
    691 y_11_14                1                       0
    694 y_14_14                1                       0
    702 y_2_15                 1                       0
    703 y_3_15                 1                       0
    706 y_6_15                 1                       0
    714 y_14_15                1                       0
    715 y_15_15                1                       0
    721 y_1_16                 1                       0
    722 y_2_16                 1                       0
    723 y_3_16                 1                       0
    724 y_4_16                 1                       0
    730 y_10_16                1                       0
    736 y_16_16                1                       0
    741 y_1_17                 1                       0
    742 y_2_17                 1                       0
    743 y_3_17                 1                       0
    746 y_6_17                 1                       0
    757 y_17_17                1                       0
    762 y_2_18                 1                       0
    763 y_3_18                 1                       0
    766 y_6_18                 1                       0
    775 y_15_18                1                       0
    778 y_18_18                1                       0
    781 y_1_19                 1                       0
    785 y_5_19                 1                       0
    792 y_12_19                1                       0
    799 y_19_19                1                       0
    802 y_2_20                 1                       0
    803 y_3_20                 1                       0
    806 y_6_20                 1                       0
    811 y_11_20                1                       0
    820 y_20_20                1                       0
